p cnf 140 474
c p weight 56 -1 0
c p weight -56 1 0
c p weight 58 6.12323399573676603586882014729198302312846062338790031898128063403419218957424163818359375E-17 0
c p weight -58 1 0
c p weight 59 1 0
c p weight -59 1 0
c p weight 60 -1 0
c p weight -60 1 0
c p weight 62 -1 0
c p weight -62 1 0
c p weight 65 -1 0
c p weight -65 1 0
c p weight 68 -1 0
c p weight -68 1 0
c p weight 71 -1 0
c p weight -71 1 0
c p weight 74 -1 0
c p weight -74 1 0
c p weight 77 -1 0
c p weight -77 1 0
c p weight 80 -1 0
c p weight -80 1 0
c p weight 83 -1 0
c p weight -83 1 0
c p weight 86 -1 0
c p weight -86 1 0
c p weight 89 -1 0
c p weight -89 1 0
c p weight 92 -1 0
c p weight -92 1 0
c p weight 95 -1 0
c p weight -95 1 0
c p weight 98 -1 0
c p weight -98 1 0
c p weight 101 -1 0
c p weight -101 1 0
c p weight 104 -1 0
c p weight -104 1 0
c p weight 107 -1 0
c p weight -107 1 0
c p weight 110 -1 0
c p weight -110 1 0
c p weight 113 -1 0
c p weight -113 1 0
c p weight 116 -1 0
c p weight -116 1 0
c p weight 119 -1 0
c p weight -119 1 0
c p weight 122 -1 0
c p weight -122 1 0
c p weight 125 -1 0
c p weight -125 1 0
c p weight 128 -1 0
c p weight -128 1 0
c p weight 131 -1 0
c p weight -131 1 0
c p weight 134 -1 0
c p weight -134 1 0
c p weight 137 -1 0
c p weight -137 1 0
c p weight 140 -1 0
c p weight -140 1 0
-53 0
-51 0
-49 0
-47 0
-45 0
-43 0
-41 0
-39 0
-37 0
-35 0
-33 0
-31 0
-29 0
-27 0
-25 0
-23 0
-21 0
-19 0
-17 0
-15 0
-13 0
-11 0
-9 0
-7 0
-5 0
-3 0
-1 0
55 53 -54 0
55 -53 54 0
-55 53 54 0
-55 -53 -54 0
-56 53 0
-56 54 0
56 -53 -54 0
57 -53 55 0
-57 53 55 0
-58 55 0
57 -58 -53 0
-57 -58 53 0
57 58 53 -55 0
-57 58 -53 -55 0
-59 55 0
57 -59 53 0
-57 -59 -53 0
57 59 -53 -55 0
-57 59 53 -55 0
-60 57 0
-60 55 0
-60 -53 0
60 -57 53 -55 0
61 57 -55 0
61 -57 55 0
-61 57 55 0
-61 -57 -55 0
-62 57 0
-62 55 0
62 -57 -55 0
63 57 -51 0
63 -57 51 0
-63 57 51 0
-63 -57 -51 0
64 61 -52 0
64 -61 52 0
-64 61 52 0
-64 -61 -52 0
-65 57 0
-65 52 0
-65 51 -61 0
-65 -51 61 0
65 -57 51 61 -52 0
65 -57 -51 -61 -52 0
66 63 -49 0
66 -63 49 0
-66 63 49 0
-66 -63 -49 0
67 52 -50 0
67 -52 50 0
-67 52 50 0
-67 -52 -50 0
-68 63 0
-68 50 0
-68 49 -52 0
-68 -49 52 0
68 -63 49 52 -50 0
68 -63 -49 -52 -50 0
69 66 -47 0
69 -66 47 0
-69 66 47 0
-69 -66 -47 0
70 50 -48 0
70 -50 48 0
-70 50 48 0
-70 -50 -48 0
-71 66 0
-71 48 0
-71 47 -50 0
-71 -47 50 0
71 -66 47 50 -48 0
71 -66 -47 -50 -48 0
72 69 -45 0
72 -69 45 0
-72 69 45 0
-72 -69 -45 0
73 48 -46 0
73 -48 46 0
-73 48 46 0
-73 -48 -46 0
-74 69 0
-74 46 0
-74 45 -48 0
-74 -45 48 0
74 -69 45 48 -46 0
74 -69 -45 -48 -46 0
75 72 -43 0
75 -72 43 0
-75 72 43 0
-75 -72 -43 0
76 46 -44 0
76 -46 44 0
-76 46 44 0
-76 -46 -44 0
-77 72 0
-77 44 0
-77 43 -46 0
-77 -43 46 0
77 -72 43 46 -44 0
77 -72 -43 -46 -44 0
78 75 -41 0
78 -75 41 0
-78 75 41 0
-78 -75 -41 0
79 44 -42 0
79 -44 42 0
-79 44 42 0
-79 -44 -42 0
-80 75 0
-80 42 0
-80 41 -44 0
-80 -41 44 0
80 -75 41 44 -42 0
80 -75 -41 -44 -42 0
81 78 -39 0
81 -78 39 0
-81 78 39 0
-81 -78 -39 0
82 42 -40 0
82 -42 40 0
-82 42 40 0
-82 -42 -40 0
-83 78 0
-83 40 0
-83 39 -42 0
-83 -39 42 0
83 -78 39 42 -40 0
83 -78 -39 -42 -40 0
84 81 -37 0
84 -81 37 0
-84 81 37 0
-84 -81 -37 0
85 40 -38 0
85 -40 38 0
-85 40 38 0
-85 -40 -38 0
-86 81 0
-86 38 0
-86 37 -40 0
-86 -37 40 0
86 -81 37 40 -38 0
86 -81 -37 -40 -38 0
87 84 -35 0
87 -84 35 0
-87 84 35 0
-87 -84 -35 0
88 38 -36 0
88 -38 36 0
-88 38 36 0
-88 -38 -36 0
-89 84 0
-89 36 0
-89 35 -38 0
-89 -35 38 0
89 -84 35 38 -36 0
89 -84 -35 -38 -36 0
90 87 -33 0
90 -87 33 0
-90 87 33 0
-90 -87 -33 0
91 36 -34 0
91 -36 34 0
-91 36 34 0
-91 -36 -34 0
-92 87 0
-92 34 0
-92 33 -36 0
-92 -33 36 0
92 -87 33 36 -34 0
92 -87 -33 -36 -34 0
93 90 -31 0
93 -90 31 0
-93 90 31 0
-93 -90 -31 0
94 34 -32 0
94 -34 32 0
-94 34 32 0
-94 -34 -32 0
-95 90 0
-95 32 0
-95 31 -34 0
-95 -31 34 0
95 -90 31 34 -32 0
95 -90 -31 -34 -32 0
96 93 -29 0
96 -93 29 0
-96 93 29 0
-96 -93 -29 0
97 32 -30 0
97 -32 30 0
-97 32 30 0
-97 -32 -30 0
-98 93 0
-98 30 0
-98 29 -32 0
-98 -29 32 0
98 -93 29 32 -30 0
98 -93 -29 -32 -30 0
99 96 -27 0
99 -96 27 0
-99 96 27 0
-99 -96 -27 0
100 30 -28 0
100 -30 28 0
-100 30 28 0
-100 -30 -28 0
-101 96 0
-101 28 0
-101 27 -30 0
-101 -27 30 0
101 -96 27 30 -28 0
101 -96 -27 -30 -28 0
102 99 -25 0
102 -99 25 0
-102 99 25 0
-102 -99 -25 0
103 28 -26 0
103 -28 26 0
-103 28 26 0
-103 -28 -26 0
-104 99 0
-104 26 0
-104 25 -28 0
-104 -25 28 0
104 -99 25 28 -26 0
104 -99 -25 -28 -26 0
105 102 -23 0
105 -102 23 0
-105 102 23 0
-105 -102 -23 0
106 26 -24 0
106 -26 24 0
-106 26 24 0
-106 -26 -24 0
-107 102 0
-107 24 0
-107 23 -26 0
-107 -23 26 0
107 -102 23 26 -24 0
107 -102 -23 -26 -24 0
108 105 -21 0
108 -105 21 0
-108 105 21 0
-108 -105 -21 0
109 24 -22 0
109 -24 22 0
-109 24 22 0
-109 -24 -22 0
-110 105 0
-110 22 0
-110 21 -24 0
-110 -21 24 0
110 -105 21 24 -22 0
110 -105 -21 -24 -22 0
111 108 -19 0
111 -108 19 0
-111 108 19 0
-111 -108 -19 0
112 22 -20 0
112 -22 20 0
-112 22 20 0
-112 -22 -20 0
-113 108 0
-113 20 0
-113 19 -22 0
-113 -19 22 0
113 -108 19 22 -20 0
113 -108 -19 -22 -20 0
114 111 -17 0
114 -111 17 0
-114 111 17 0
-114 -111 -17 0
115 20 -18 0
115 -20 18 0
-115 20 18 0
-115 -20 -18 0
-116 111 0
-116 18 0
-116 17 -20 0
-116 -17 20 0
116 -111 17 20 -18 0
116 -111 -17 -20 -18 0
117 114 -15 0
117 -114 15 0
-117 114 15 0
-117 -114 -15 0
118 18 -16 0
118 -18 16 0
-118 18 16 0
-118 -18 -16 0
-119 114 0
-119 16 0
-119 15 -18 0
-119 -15 18 0
119 -114 15 18 -16 0
119 -114 -15 -18 -16 0
120 117 -13 0
120 -117 13 0
-120 117 13 0
-120 -117 -13 0
121 16 -14 0
121 -16 14 0
-121 16 14 0
-121 -16 -14 0
-122 117 0
-122 14 0
-122 13 -16 0
-122 -13 16 0
122 -117 13 16 -14 0
122 -117 -13 -16 -14 0
123 120 -11 0
123 -120 11 0
-123 120 11 0
-123 -120 -11 0
124 14 -12 0
124 -14 12 0
-124 14 12 0
-124 -14 -12 0
-125 120 0
-125 12 0
-125 11 -14 0
-125 -11 14 0
125 -120 11 14 -12 0
125 -120 -11 -14 -12 0
126 123 -9 0
126 -123 9 0
-126 123 9 0
-126 -123 -9 0
127 12 -10 0
127 -12 10 0
-127 12 10 0
-127 -12 -10 0
-128 123 0
-128 10 0
-128 9 -12 0
-128 -9 12 0
128 -123 9 12 -10 0
128 -123 -9 -12 -10 0
129 126 -7 0
129 -126 7 0
-129 126 7 0
-129 -126 -7 0
130 10 -8 0
130 -10 8 0
-130 10 8 0
-130 -10 -8 0
-131 126 0
-131 8 0
-131 7 -10 0
-131 -7 10 0
131 -126 7 10 -8 0
131 -126 -7 -10 -8 0
132 129 -5 0
132 -129 5 0
-132 129 5 0
-132 -129 -5 0
133 8 -6 0
133 -8 6 0
-133 8 6 0
-133 -8 -6 0
-134 129 0
-134 6 0
-134 5 -8 0
-134 -5 8 0
134 -129 5 8 -6 0
134 -129 -5 -8 -6 0
135 132 -3 0
135 -132 3 0
-135 132 3 0
-135 -132 -3 0
136 6 -4 0
136 -6 4 0
-136 6 4 0
-136 -6 -4 0
-137 132 0
-137 4 0
-137 3 -6 0
-137 -3 6 0
137 -132 3 6 -4 0
137 -132 -3 -6 -4 0
138 135 -1 0
138 -135 1 0
-138 135 1 0
-138 -135 -1 0
139 4 -2 0
139 -4 2 0
-139 4 2 0
-139 -4 -2 0
-140 135 0
-140 2 0
-140 1 -4 0
-140 -1 4 0
140 -135 1 4 -2 0
140 -135 -1 -4 -2 0
-138 0
-135 0
-139 0
-132 0
-136 0
-129 0
-133 0
-126 0
-130 0
-123 0
-127 0
-120 0
-124 0
-117 0
-121 0
-114 0
-118 0
-111 0
-115 0
-108 0
-112 0
-105 0
-109 0
-102 0
-106 0
-99 0
-103 0
-96 0
-100 0
-93 0
-97 0
-90 0
-94 0
-87 0
-91 0
-84 0
-88 0
-81 0
-85 0
-78 0
-82 0
-75 0
-79 0
-72 0
-76 0
-69 0
-73 0
-66 0
-70 0
-63 0
-67 0
-57 0
-64 0
